% seed = 7499395

mint = 68;
% maxt = 230;

nActs = 42;
dur = [0,2,2,10,10,1,2,5,6,8,1,6,8,9,8,4,6,7,8,7,7,10,6,10,9,1,3,6,3,7,3,6,8,3,3,6,6,2,10,10,1,0];

nSkills = 4;
sreq = [| 0,0,0,0,
	| 6,0,0,4,
	| 3,2,0,0,
	| 5,0,5,0,
	| 0,0,2,3,
	| 2,0,0,5,
	| 3,0,3,0,
	| 0,4,0,4,
	| 1,0,5,0,
	| 2,6,0,0,
	| 4,0,0,6,
	| 1,0,6,0,
	| 0,0,7,5,
	| 5,0,3,0,
	| 4,0,0,5,
	| 0,3,0,1,
	| 0,6,0,3,
	| 5,0,0,6,
	| 3,6,0,0,
	| 0,0,4,2,
	| 5,0,0,2,
	| 0,3,3,0,
	| 0,6,0,6,
	| 5,0,0,4,
	| 0,0,6,5,
	| 2,0,0,7,
	| 4,2,0,0,
	| 3,0,3,0,
	| 0,0,4,5,
	| 0,3,3,0,
	| 0,0,6,3,
	| 0,2,5,0,
	| 0,0,4,3,
	| 0,3,4,0,
	| 0,0,6,4,
	| 0,0,7,6,
	| 0,0,4,3,
	| 0,4,4,0,
	| 4,0,0,2,
	| 0,4,3,0,
	| 0,0,4,4,
	| 0,0,0,0, |];

nResources = 20;
mastery = [| false,false,false,true,
	| false,true,true,true,
	| false,true,true,true,
	| false,false,true,false,
	| false,true,false,false,
	| true,true,false,true,
	| true,true,false,true,
	| true,false,false,false,
	| true,false,false,false,
	| false,true,false,true,
	| true,false,true,true,
	| true,false,false,false,
	| false,false,true,false,
	| true,true,true,false,
	| false,false,true,false,
	| true,true,false,false,
	| false,true,true,true,
	| false,false,false,true,
	| false,true,false,false,
	| true,false,true,true, |];

nPrecs = 85;
pred = [1,1,1,2,2,2,3,3,3,4,4,4,5,5,5,6,6,6,7,7,7,8,8,8,9,10,10,10,11,11,11,12,12,12,13,13,13,14,14,14,15,15,16,16,16,17,18,18,18,19,19,19,20,21,21,22,22,23,23,24,25,26,26,26,27,27,28,28,29,29,30,30,30,31,32,33,34,35,35,36,37,38,39,40,41];
succ = [2,3,4,9,27,38,13,5,6,11,28,19,10,12,8,18,7,10,34,11,19,9,28,23,14,26,35,15,41,20,22,21,30,16,31,23,16,17,34,32,28,16,25,27,20,24,41,26,23,20,21,30,39,22,32,25,24,34,27,26,33,37,29,31,29,32,30,40,36,40,33,36,38,40,33,37,36,37,38,39,39,41,42,42,42];

nUnrels = 367;
unpred = [2,2,2,2,2,2,2,2,2,2,2,2,2,2,2,2,2,2,2,2,2,2,3,4,4,4,4,4,4,4,4,4,4,4,4,4,4,4,4,4,5,5,5,5,5,5,6,6,6,6,6,6,7,7,7,7,7,7,7,7,7,7,7,7,7,7,8,8,8,8,8,8,8,8,8,8,8,8,8,9,9,9,9,9,9,9,9,9,9,9,9,9,9,9,9,9,9,9,10,10,10,10,10,10,10,10,10,10,10,10,11,11,11,11,11,11,11,11,11,11,11,11,11,11,11,11,11,12,12,12,12,12,12,12,12,12,12,13,13,13,13,13,13,13,13,13,13,13,13,13,13,14,14,14,14,14,14,14,14,14,14,14,14,14,14,14,15,15,15,15,15,15,15,15,15,15,15,16,16,16,16,16,16,16,16,16,16,16,16,16,16,16,17,17,17,17,17,17,17,17,17,17,17,17,17,17,17,17,18,18,18,18,18,18,18,18,18,18,19,19,19,19,19,20,20,20,20,20,20,20,20,20,20,20,20,20,20,20,20,20,20,20,20,21,21,21,21,21,21,21,21,22,22,22,22,22,22,22,22,22,23,23,23,23,23,23,23,23,23,24,24,24,24,24,24,24,24,24,24,25,25,25,25,25,25,25,25,25,25,25,25,25,26,26,26,26,26,26,26,26,26,27,27,27,27,27,27,27,28,28,28,28,28,29,29,29,29,29,29,29,29,29,30,30,30,30,30,31,31,31,31,31,31,31,31,31,32,32,32,32,32,32,33,33,33,33,33,33,34,34,34,34,34,35,35,36,36,36,36,37,37,37,38,38,39,39,40];
unsucc = [3,4,5,6,7,8,10,11,12,13,15,16,18,19,20,21,22,23,25,28,30,35,4,5,6,7,8,9,10,12,13,14,15,16,17,18,23,27,34,35,6,7,11,13,18,19,8,9,12,13,14,17,8,9,10,12,13,14,15,16,17,18,23,27,28,35,10,11,12,13,15,16,18,19,20,21,22,25,35,10,11,12,13,15,16,18,19,20,21,22,23,25,27,28,30,35,38,41,11,12,13,14,17,18,19,21,22,23,24,34,12,13,14,15,16,17,18,19,21,23,27,28,30,32,34,35,38,13,14,15,17,18,19,23,28,34,35,14,15,17,18,19,21,22,24,26,28,30,35,38,41,15,16,18,19,20,21,22,23,25,27,28,30,35,38,41,17,18,19,21,22,23,24,26,31,34,35,17,18,19,21,22,23,24,26,28,30,31,34,35,38,41,18,19,20,21,22,23,25,27,28,30,32,33,34,35,38,41,19,20,21,22,24,25,28,30,35,38,23,27,28,34,35,21,22,23,24,25,26,27,28,29,30,31,32,33,34,35,36,37,38,40,41,23,27,28,30,34,35,38,41,23,27,28,30,32,34,35,38,41,24,25,26,28,30,31,35,38,41,25,27,28,30,32,33,34,35,38,41,26,27,28,29,30,31,32,34,35,36,38,40,41,27,28,30,32,33,34,35,38,41,28,30,31,34,35,38,41,29,31,32,34,35,30,31,32,33,34,35,37,38,41,31,32,34,35,40,32,33,34,35,36,37,38,39,41,34,35,36,38,40,41,34,35,36,38,40,41,35,37,38,40,41,36,40,37,38,40,41,38,40,41,39,40,40,41,41];

USEFUL_RES = [{},
	{1,2,3,6,7,8,9,10,11,12,14,16,17,18,20},
	{2,3,5,6,7,8,9,10,11,12,14,16,17,19,20},
	{2,3,4,6,7,8,9,11,12,13,14,15,16,17,20},
	{1,2,3,4,6,7,10,11,13,14,15,17,18,20},
	{1,2,3,6,7,8,9,10,11,12,14,16,17,18,20},
	{2,3,4,6,7,8,9,11,12,13,14,15,16,17,20},
	{1,2,3,5,6,7,10,11,14,16,17,18,19,20},
	{2,3,4,6,7,8,9,11,12,13,14,15,16,17,20},
	{2,3,5,6,7,8,9,10,11,12,14,16,17,19,20},
	{1,2,3,6,7,8,9,10,11,12,14,16,17,18,20},
	{2,3,4,6,7,8,9,11,12,13,14,15,16,17,20},
	{1,2,3,4,6,7,10,11,13,14,15,17,18,20},
	{2,3,4,6,7,8,9,11,12,13,14,15,16,17,20},
	{1,2,3,6,7,8,9,10,11,12,14,16,17,18,20},
	{1,2,3,5,6,7,10,11,14,16,17,18,19,20},
	{1,2,3,5,6,7,10,11,14,16,17,18,19,20},
	{1,2,3,6,7,8,9,10,11,12,14,16,17,18,20},
	{2,3,5,6,7,8,9,10,11,12,14,16,17,19,20},
	{1,2,3,4,6,7,10,11,13,14,15,17,18,20},
	{1,2,3,6,7,8,9,10,11,12,14,16,17,18,20},
	{2,3,4,5,6,7,10,11,13,14,15,16,17,19,20},
	{1,2,3,5,6,7,10,11,14,16,17,18,19,20},
	{1,2,3,6,7,8,9,10,11,12,14,16,17,18,20},
	{1,2,3,4,6,7,10,11,13,14,15,17,18,20},
	{1,2,3,6,7,8,9,10,11,12,14,16,17,18,20},
	{2,3,5,6,7,8,9,10,11,12,14,16,17,19,20},
	{2,3,4,6,7,8,9,11,12,13,14,15,16,17,20},
	{1,2,3,4,6,7,10,11,13,14,15,17,18,20},
	{2,3,4,5,6,7,10,11,13,14,15,16,17,19,20},
	{1,2,3,4,6,7,10,11,13,14,15,17,18,20},
	{2,3,4,5,6,7,10,11,13,14,15,16,17,19,20},
	{1,2,3,4,6,7,10,11,13,14,15,17,18,20},
	{2,3,4,5,6,7,10,11,13,14,15,16,17,19,20},
	{1,2,3,4,6,7,10,11,13,14,15,17,18,20},
	{1,2,3,4,6,7,10,11,13,14,15,17,18,20},
	{1,2,3,4,6,7,10,11,13,14,15,17,18,20},
	{2,3,4,5,6,7,10,11,13,14,15,16,17,19,20},
	{1,2,3,6,7,8,9,10,11,12,14,16,17,18,20},
	{2,3,4,5,6,7,10,11,13,14,15,16,17,19,20},
	{1,2,3,4,6,7,10,11,13,14,15,17,18,20},
	{}];

POTENTIAL_ACT = [{2,5,6,8,11,13,15,16,17,18,20,21,23,24,25,26,29,31,33,35,36,37,39,41},
	{2,3,4,5,6,7,8,9,10,11,12,13,14,15,16,17,18,19,20,21,22,23,24,25,26,27,28,29,30,31,32,33,34,35,36,37,38,39,40,41},
	{2,3,4,5,6,7,8,9,10,11,12,13,14,15,16,17,18,19,20,21,22,23,24,25,26,27,28,29,30,31,32,33,34,35,36,37,38,39,40,41},
	{4,5,7,9,12,13,14,20,22,25,28,29,30,31,32,33,34,35,36,37,38,40,41},
	{3,8,10,16,17,19,22,23,27,30,32,34,38,40},
	{2,3,4,5,6,7,8,9,10,11,12,13,14,15,16,17,18,19,20,21,22,23,24,25,26,27,28,29,30,31,32,33,34,35,36,37,38,39,40,41},
	{2,3,4,5,6,7,8,9,10,11,12,13,14,15,16,17,18,19,20,21,22,23,24,25,26,27,28,29,30,31,32,33,34,35,36,37,38,39,40,41},
	{2,3,4,6,7,9,10,11,12,14,15,18,19,21,24,26,27,28,39},
	{2,3,4,6,7,9,10,11,12,14,15,18,19,21,24,26,27,28,39},
	{2,3,5,6,8,10,11,13,15,16,17,18,19,20,21,22,23,24,25,26,27,29,30,31,32,33,34,35,36,37,38,39,40,41},
	{2,3,4,5,6,7,8,9,10,11,12,13,14,15,16,17,18,19,20,21,22,23,24,25,26,27,28,29,30,31,32,33,34,35,36,37,38,39,40,41},
	{2,3,4,6,7,9,10,11,12,14,15,18,19,21,24,26,27,28,39},
	{4,5,7,9,12,13,14,20,22,25,28,29,30,31,32,33,34,35,36,37,38,40,41},
	{2,3,4,5,6,7,8,9,10,11,12,13,14,15,16,17,18,19,20,21,22,23,24,25,26,27,28,29,30,31,32,33,34,35,36,37,38,39,40,41},
	{4,5,7,9,12,13,14,20,22,25,28,29,30,31,32,33,34,35,36,37,38,40,41},
	{2,3,4,6,7,8,9,10,11,12,14,15,16,17,18,19,21,22,23,24,26,27,28,30,32,34,38,39,40},
	{2,3,4,5,6,7,8,9,10,11,12,13,14,15,16,17,18,19,20,21,22,23,24,25,26,27,28,29,30,31,32,33,34,35,36,37,38,39,40,41},
	{2,5,6,8,11,13,15,16,17,18,20,21,23,24,25,26,29,31,33,35,36,37,39,41},
	{3,8,10,16,17,19,22,23,27,30,32,34,38,40},
	{2,3,4,5,6,7,8,9,10,11,12,13,14,15,16,17,18,19,20,21,22,23,24,25,26,27,28,29,30,31,32,33,34,35,36,37,38,39,40,41}];
